c Grid graph 4x16
p edge 64 108
e 1 2
e 1 17
e 2 3
e 2 18
e 3 4
e 3 19
e 4 5
e 4 20
e 5 6
e 5 21
e 6 7
e 6 22
e 7 8
e 7 23
e 8 9
e 8 24
e 9 10
e 9 25
e 10 11
e 10 26
e 11 12
e 11 27
e 12 13
e 12 28
e 13 14
e 13 29
e 14 15
e 14 30
e 15 16
e 15 31
e 16 32
e 17 18
e 17 33
e 18 19
e 18 34
e 19 20
e 19 35
e 20 21
e 20 36
e 21 22
e 21 37
e 22 23
e 22 38
e 23 24
e 23 39
e 24 25
e 24 40
e 25 26
e 25 41
e 26 27
e 26 42
e 27 28
e 27 43
e 28 29
e 28 44
e 29 30
e 29 45
e 30 31
e 30 46
e 31 32
e 31 47
e 32 48
e 33 34
e 33 49
e 34 35
e 34 50
e 35 36
e 35 51
e 36 37
e 36 52
e 37 38
e 37 53
e 38 39
e 38 54
e 39 40
e 39 55
e 40 41
e 40 56
e 41 42
e 41 57
e 42 43
e 42 58
e 43 44
e 43 59
e 44 45
e 44 60
e 45 46
e 45 61
e 46 47
e 46 62
e 47 48
e 47 63
e 48 64
e 49 50
e 50 51
e 51 52
e 52 53
e 53 54
e 54 55
e 55 56
e 56 57
e 57 58
e 58 59
e 59 60
e 60 61
e 61 62
e 62 63
e 63 64
